\ SCIP STATISTICS
\   Problem name     : t_
\   Variables        : 27 (10 binary, 0 integer, 0 implicit integer, 17 continuous)
\   Constraints      : 19
Maximize
 Obj: +1 t_x[6] +1 t_x[7] +1 t_x[1] +1 t_x[2] +1 t_x[3] +1 t_x[4] +1 t_x[5]
Subject to
  -1 t_x[6] +1 t_x[1] -1 t_x[2] -1 t_x[4] = +0
  +1 t_x[7] +1 t_x[3] +1 t_x[4] -1 t_x[5] = +0
  +1 t_x[6] +1 t_ >= +1e-07
  +1 t_x[4] +1 t_ >= +1e-07
  +1 t_x[2] -1 t_x[3] = +0
  +1 t_a[5] +1 t_ = +1
  +1 t_a[3] +1 t_ = +1
  -1 t_a[3] +1 t_a[4] +1 t_a[5] <= +0.999
  +1 t_a[1] +1 t_a[2] -1 t_a[4] -1 t_a[5] <= +0.999
 t_: t_ = 1 ->  +1 t_x[4] <= -1e-07
 t_: t_ = 1 ->  +1 t_x[7] <= -1e-07
Bounds
 1 <= t_a[1] <= 1
 1 <= t_a[2] <= 1
 0 <= t_a[3] <= 1
 0 <= t_a[4] <= 0
 0 <= t_a[5] <= 1
 0 <= t_ <= 0
 0 <= t_ <= 0
 0 <= t_ <= 1
 1 <= t_ <= 1
 0 <= t_ <= 1
 0 <= t_x[6] <= 0
 0 <= t_x[7] <= 0
 4.99999975 <= t_x[1] <= 20
 1.0000000116861e-07 <= t_x[2] <= 30
 1.0000000116861e-07 <= t_x[3] <= 30
 -10 <= t_x[4] <= 20.0000005
 0 <= t_indslack_ <= 0
 4.99999975 <= t_x[5] <= 20
 0 <= t_ <= 0
 0 <= t_ <= 0
 -20.0000004 <= t_
 1e-07 <= t_
Binaries
 t_a[1] t_a[2] t_a[3] t_a[4] t_a[5] t_ t_ t_ t_ t_
SOS
 t_: S1:: t_:0.4 t_a[5]:0.6
 t_: S1:: t_:0.4 t_a[3]:0.6
 t_: S1:: t_:0.4 t_a[4]:0.6
End
